n_res = 6;
rcap = [19, 20, 20, 21, 92, 92];
rtype = [1, 1, 1, 1, 2, 2];
n_tasks = 16;
modes = [ {1, 2, 3}, {4, 5, 6}, {7, 8, 9}, {10, 11, 12}, {13, 14, 15}, {16, 17, 18}, {19, 20, 21}, {22, 23, 24}, {25, 26, 27}, {28, 29, 30}, {31, 32, 33}, {34, 35, 36}, {37, 38, 39}, {40, 41, 42}, {43, 44, 45}, {46, 47, 48} ];
succ = [ {4, 9, 16}, {11, 13}, {6, 7}, {5}, {6, 8}, {10, 12, 13}, {9, 10, 16}, {10, 15}, {12, 13}, {14}, {12, 14, 16}, {15}, {14, 15}, {}, {}, {} ];
n_opt = 48;
dur = [2, 10, 10, 1, 4, 5, 6, 8, 10, 1, 3, 3, 1, 5, 7, 7, 8, 8, 1, 2, 6, 6, 7, 8, 2, 3, 9, 3, 7, 9, 2, 7, 10, 3, 6, 7, 10, 10, 10, 2, 7, 10, 3, 5, 8, 1, 8, 8];
rreq = [|  0,  9,  9,  7,  6,  6,  7,  6,  4,  6,  0,  6,  5,  0,  3,  0,  5,  8, 10,  9,  8,  0,  0,  6,  6,  0,  0,  0,  6,  0,  7,  0,  0,  9,  0,  0,  5,  0,  0, 10,  8,  0,  8,  0,  4,  0,  0,  4
        |  0,  4,  2,  3,  0,  0,  0,  7,  7,  6,  6,  6,  0,  9,  0,  0,  2,  0,  5,  2,  0,  5,  2,  0,  0,  8,  4,  0,  6,  1,  0,  0, 10,  9,  9,  0,  6,  6,  0,  0,  0,  0,  2,  2,  0,  0,  0,  7
        |  9,  0,  0,  0,  0,  4,  0,  9,  9,  2,  0,  0,  0,  9,  6,  0,  0,  0,  7,  0,  5,  0,  0,  6,  8,  6,  0,  8,  5,  3,  0,  8,  7,  3,  0,  0,  8,  0,  7,  7,  0,  7,  0,  0,  4,  0,  6,  7
        |  0,  0,  0,  0,  0,  0, 10,  0,  0,  0,  0,  0,  7,  0,  0,  8,  7,  8,  0,  0,  0,  0,  8,  5,  0,  2,  0,  9,  6,  0,  0,  0,  8,  0,  0,  4,  0,  0,  0,  0,  0,  7,  0,  3,  2,  6,  5,  0
        |  9,  5,  5,  8,  7,  6,  4,  4,  3,  3,  1,  1,  8,  7,  6, 10,  9,  8,  6,  3,  3,  4,  4,  1,  6,  4,  4,  4,  4,  1, 10,  5,  5,  9,  7,  5,  5,  7,  8,  3,  2,  2,  9,  6,  4,  2,  1,  1
        |  9,  3,  6,  6,  3,  3,  4,  4,  3, 10,  9,  7,  7,  7,  7,  7,  5,  5,  1,  1,  1,  4,  3,  2,  3,  3,  2, 10, 10, 10,  7,  6,  6,  7,  7,  7,  3,  4,  4,  6,  3,  3,  3,  2,  2, 10, 10,  9 |];
